82 78 64 74 55 99 94 75 89 65 98 32 18 41 45 90 43 80 0 21 56 49 47 30 12 87 79 8 46 77 4 16 96 29 81 71 93 17 52 61 63 19 62 83 54 44 7 85 70 35 48 39 25 88 1 13 69 27 86 22 58 37 20 67 15 33 38 51 40 36 53 6 2 73 23 97 76 91 5 34 24 11 10 28 50 31 84 9 26 95 42 59 66 68 14 92 72 57 3 60 

